DATASET = "thpack2";
INSTANCE = "084";

WIDTH = 233;
HEIGHT = 220;
LENGTH = 587;

NO_OF_SHAPES = 5;
size = [|
  114,77,42 |
  105,81,74 |
  76,73,50 |
  104,91,41 |
  75,70,23 |
|];

verticality = [|
  0,1,1 |
  1,1,1 |
  1,1,1 |
  0,0,1 |
  0,0,1 |
|];

box_count = [
  25,
  17,
  16,
  9,
  18,
];
